! GFN2-xTB GOAT-EXPLORE TightSCF

%pal
  nprocs 8
end

%maxcore 500

%goat
  NWorkers 8
  RandomSeed false
  AutoWall true
end

* xyz 0 1
B    0.000000    0.000000    0.000000
B    1.500000    0.000000    0.000000
B   -1.500000    0.000000    0.000000
B    0.000000    1.500000    0.000000
B    0.000000   -1.500000    0.000000
B    0.000000    0.000000    1.500000
B    0.000000    0.000000   -1.500000
B    1.500000    1.500000    0.000000
B   -1.500000    1.500000    0.000000
B    1.500000   -1.500000    0.000000
B   -1.500000   -1.500000    0.000000
B    0.000000    0.000000    3.000000
*
