! GFN2-xTB TightSCF TightOpt

%pal
  nprocs 1
end

%maxcore 500

* xyzfile 0 1 ../../../starts/double_ring_6_6_d2.10.xyz
