! GFN2-xTB TightSCF TightOpt

%pal
  nprocs 1
end

%maxcore 500

* xyzfile 0 1 ../../../starts/zigzag_chain12_d2.10.xyz
