! GFN2-xTB TightSCF TightOpt

%pal
  nprocs 1
end

%maxcore 500

* xyzfile 0 3 ../../../starts/double_ring_6_6_d1.90.xyz
