! GFN2-xTB TightSCF TightOpt

%pal
  nprocs 1
end

%maxcore 500

* xyzfile 0 3 ../../../starts/zigzag_chain12_d1.50.xyz
