! r2SCAN-3c TightSCF NumFreq

%pal
  nprocs 8
end

%maxcore 2000

* xyzfile 0 1 ../../results/02_r2scan_xyz/double_ring_6_6_d1.90_m1_r2scan.xyz
