! r2SCAN-3c TightSCF NumFreq

%pal
  nprocs 8
end

%maxcore 2000

* xyzfile 0 3 ../../results/02_r2scan_xyz/zigzag_chain12_d1.50_m3_r2scan.xyz
