! r2SCAN-3c TightSCF TightOpt

%pal
  nprocs 8
end

%maxcore 2000

* xyzfile 0 1 ../../results/01_xtb_xyz/double_ring_6_6_d1.90_m1.xyz
