! r2SCAN-3c TightSCF TightOpt

%pal
  nprocs 8
end

%maxcore 2000

* xyzfile 0 1 ../../results/01_xtb_xyz/ring12_d1.70_m1.xyz
